id: 388
name: nsct1
group: meszaros/misc
method: 2

Gurobi 7.0.2 (linux64, Matlab) logging started Mon Mar 26 10:10:18 2018


Gurobi 7.0.2 (linux64) logging started Mon Mar 26 10:10:18 2018

Optimize a model with 22901 rows, 14981 columns and 656259 nonzeros
Coefficient statistics:
  Matrix range     [1e+00, 1e+05]
  Objective range  [1e+00, 1e+00]
  Bounds range     [0e+00, 0e+00]
  RHS range        [1e+00, 1e+06]
Presolve removed 15205 rows and 3684 columns
Presolve time: 0.11s
Presolved: 7696 rows, 11297 columns, 589578 nonzeros

Ordering time: 0.11s

Barrier statistics:
 Dense cols : 318
 AA' NZ     : 2.868e+06
 Factor NZ  : 6.998e+06 (roughly 60 MBytes of memory)
 Factor Ops : 1.121e+10 (less than 1 second per iteration)
 Threads    : 4

                  Objective                Residual
Iter       Primal          Dual         Primal    Dual     Compl     Time
   0  -5.64757348e+09 -6.81069483e+07  2.36e+03 0.00e+00  8.20e+05     1s
   1  -3.32066127e+09 -2.07823891e+08  1.45e+03 7.75e+04  4.56e+05     1s
   2  -7.93646155e+08 -2.39267183e+08  3.46e+02 4.14e+03  1.15e+05     1s
   3  -1.19380593e+08 -1.33201468e+08  3.78e+01 3.49e-10  1.48e+04     1s
   4  -4.57675993e+07 -7.42022752e+07  4.29e+00 2.91e-10  2.63e+03     2s
   5  -4.11245678e+07 -5.34164674e+07  1.68e+00 6.98e-10  1.02e+03     2s
   6  -3.90355703e+07 -4.14094089e+07  3.63e-01 2.91e-10  1.98e+02     2s
   7  -3.88511796e+07 -3.95712437e+07  4.83e-02 3.49e-10  4.02e+01     2s
   8  -3.88940064e+07 -3.90014754e+07  9.07e-03 2.91e-10  6.20e+00     2s
   9  -3.89107131e+07 -3.89596031e+07  3.13e-03 2.33e-10  2.54e+00     2s
  10  -3.89180504e+07 -3.89241302e+07  1.03e-03 2.91e-10  4.42e-01     3s
  11  -3.89210824e+07 -3.89226148e+07  2.98e-04 1.75e-10  1.19e-01     3s
  12  -3.89223768e+07 -3.89224659e+07  8.82e-06 2.19e-08  5.17e-03     3s
  13  -3.89224325e+07 -3.89224438e+07  5.07e-07 1.72e-08  5.34e-04     3s
  14  -3.89224360e+07 -3.89224360e+07  2.59e-09 1.87e-08  2.08e-06     3s
  15  -3.89224360e+07 -3.89224360e+07  9.37e-14 4.58e-08  1.15e-10     4s

Barrier solved model in 15 iterations and 3.52 seconds
Optimal objective -3.89224360e+07

Crossover log...

       0 DPushes remaining with DInf 0.0000000e+00                 4s

    3267 PPushes remaining with PInf 0.0000000e+00                 4s
       0 PPushes remaining with PInf 0.0000000e+00                 4s

  Push phase complete: Pinf 0.0000000e+00, Dinf 0.0000000e+00      4s

Iteration    Objective       Primal Inf.    Dual Inf.      Time
    3687   -3.8922436e+07   0.000000e+00   0.000000e+00      4s
    3687   -3.8922436e+07   0.000000e+00   0.000000e+00      4s

Solved in 3687 iterations and 3.63 seconds
Optimal objective -3.892243600e+07
status: OPTIMAL
